100
32
20
15
4
31
8
10
28
31
8
29
30
23
4
28
20
10
11
6
22
3
2
3
13
14
5
15
17
27
27
4
8
23
3
16
12
1
11
20
29
28
4
14
1
15
25
25
1
27
25
20
21
21
30
28
6
18
11
5
24
16
21
31
30
8
17
23
28
13
1
6
4
22
21
23
9
30
22
23
3
30
32
19
7
21
3
17
18
2
29
18
9
4
18
21
26
26
19
26
32
14